10	5
0	3	2	8	1
1	1	6
2	0
3	2	10	9
4	1	5
5	2	7	3
6	1	4
7	1	9
8	3	2	7	3
9	1	11
10	1	11
11	0
0	0	0	0	0	0	0
1	2	4	4	1	4	4
2	8	0	0	0	1	0
3	4	3	0	0	0	4
4	4	3	0	0	2	2
5	3	5	0	1	4	0
6	3	0	0	3	0	0
7	8	0	2	3	2	2
8	5	0	3	2	0	0
9	3	0	0	0	4	4
10	8	0	1	0	3	0
11	0	0	0	0	0	0
5	5	5	5	5
